&dos
  prefix = 'nb'
  outdir = './work'
  Emin = 17.9095
  Emax = 17.9095
/
